 $CONTRL  ICHARG=0 MPLEVL=0
          RUNTYP=OPTIMIZE SCFTYP=RHF EXETYP=RUN
          MULT=1 UNITS=ANGS MAXIT=200
          COORD=UNIQUE                          $END
 $SCF     DIRSCF=.T. CONV=1.0E-08              $END
 $SYSTEM  TIMLIM=50000 MWORDS=100 MEMDDI=0      $END
 $STATPT  NSTEP=200 OPTTOL=1.0E-06
          HESS=CALC IHREP=10                    $END
 $FORCE   METHOD=ANALYTIC VIBANL=.F.           $END
 $BASIS   GBASIS=N31 NGAUSS=6 NDFUNC=1 NPFUNC=0
          DIFFSP=.F.                            $END
 $GUESS   GUESS=HUCKEL                         $END
 $DATA
 Full optimization
 C1 
 C     6.0     -4.713   1.299  -0.212
 H     1.0     -5.146   1.146  -1.201
 H     1.0     -3.869   1.978  -0.335
 C     6.0     -4.228  -0.028   0.348
 H     1.0     -3.818   0.148   1.339
 H     1.0     -5.089  -0.679   0.479
 C     6.0     -3.185  -0.709  -0.538
 H     1.0     -3.601  -0.872  -1.531
 H     1.0     -2.332  -0.046  -0.671
 C     6.0     -2.702  -2.042   0.031
 H     1.0     -1.963  -2.504  -0.617
 H     1.0     -2.249  -1.909   1.009
 H     1.0     -3.527  -2.741   0.144
 O     8.0     -5.658   1.835   0.669
 H     1.0     -5.972   2.666   0.329
 C     6.0     -7.937  -0.386  -1.017
 H     1.0     -8.380   0.460  -1.533
 H     1.0     -8.368  -0.464  -0.023
 H     1.0     -8.168  -1.287  -1.565
 O     8.0     -6.535  -0.281  -0.968
 H     1.0     -6.288   0.491  -0.479
 $END

