memory 20 Gb

molecule conf6 {
0 1
C         -0.22000       -1.22200        0.23800
O         -1.06500        0.69600        1.39300
C         -0.20100        0.13900        0.51500
C          0.75600        0.93400       -0.08700
H          0.78300        1.98000        0.14600
O         -3.82400        1.31000        2.71500
C          1.68300        0.39300       -0.96200
C          1.65500       -0.96500       -1.23900
C          0.70300       -1.76700       -0.63300
H          0.68500       -2.81800       -0.84000
C         -2.28600        1.13100        0.86800
H         -2.87300        0.30500        0.48700
H         -2.13700        1.84000        0.06000
C         -3.06900        1.81800        1.96200
O         -2.77300        3.11500        1.96900
H         -3.26800        3.53400        2.66700
Cl         2.78400       -1.70500       -2.32300
Cl        -1.38800       -2.25700        0.99300
Cl         2.85300        1.44900       -1.67800
}
set globals {
  reference rhf
  opt_type ts
  g_convergence gau_tight
  basis 6-31G(d)
}
optimize('scf')
