memory 110 Gb

molecule conf8 {
C     1.224680092236    -0.551914602636    -0.721593459657
O     1.274808226208     1.743915686865    -0.060956905884
C     0.584651490399     0.597678780140    -0.277648071288
C    -0.787274533482     0.582497478757    -0.114536874038
H    -1.283205753805     1.471164408355     0.221796817365
O     0.263936309764     2.175335771007     2.910190624366
C    -1.521500917892    -0.559381938820    -0.383336402389
C    -0.875441271367    -1.705857045675    -0.819874448081
C     0.498660996942    -1.694777449099    -0.987930016515
H     0.998615196383    -2.578204670406    -1.332029984472
C     1.910539867529     1.902819073684     1.191409130665
H     2.818068478217     2.457339301595     1.013173874197
H     2.135607684911     0.949217189067     1.644166116171
C     0.988147609399     2.676382313974     2.115132791600
O     1.056731639452     3.983272933059     1.911305869402
H     0.432427558096     4.415845340202     2.486817510670
CL    -1.734514587046    -3.167326346818    -1.172673833851
CL     2.942798107675    -0.562724331639    -0.961007222578
CL    -3.236528860592    -0.506218468587    -0.160628874344
}
set globals {
  reference rhf
  g_convergence gau_tight
  basis 6-31G(d)
}
frequency('hf', dertype=1)
