memory 110 Gb

molecule conf3 {
    C           -0.219916617788    -1.221600510791     0.237671645473
    O           -1.065208929071     0.696193923991     1.393132574347
    C           -0.200960081850     0.138673278275     0.514594485549
    C            0.756452932523     0.933639842593    -0.087479973455
    H            0.782589921267     1.980291611214     0.146024011554
    O           -2.707209949705     2.024163831380     3.066170009571
    C            1.682934736203     0.393482484954    -0.961771392693
    C            1.654806084279    -0.965017896311    -1.238755316184
    C            0.702740960314    -1.766704002991    -0.632571561586
    H            0.685209609892    -2.818186432750    -0.839904015060
    C           -2.286009351916     1.131008082126     0.868227625106
    H           -2.873331997316     0.304623395192     0.486766512468
    H           -2.137255439898     1.839839080118     0.059786120087
    C           -3.069208388154     1.817552429863     1.961957535179
    O           -4.259443092680     2.181102138402     1.491485558632
    H           -4.740005840805     2.618715764890     2.187856605093
    CL           2.784085054598    -1.705369524744    -2.322717909929
    CL          -1.388384096265    -2.256506788629     0.992790198284
    CL           2.852836201602     1.448587224617    -1.677929658604
}
set globals {
  reference rhf
  g_convergence gau_tight
  basis 6-31G(d)
}
frequency('hf', dertype=1)
