memory 20 Gb

molecule conf5 {
0 1
    C           -0.330632550915    -1.209334298667     0.217885496216
    O           -1.056636441306     0.760546463220     1.364365909300
    C           -0.219717454663     0.145944494074     0.497052623826
    C            0.798934607715     0.872499013931    -0.090612258447
    H            0.895068659389     1.914813772906     0.144055554989
    O           -4.157149618270     2.343675765265     1.687937872479
    C            1.697088564915     0.269200160970    -0.953125241988
    C            1.577699429214    -1.083945032066    -1.232254319456
    C            0.563513453265    -1.817328024083    -0.640410323060
    H            0.474870507029    -2.864759802349    -0.850020518413
    C           -2.228642866091     1.301700563945     0.816406639718
    H           -2.870510165823     0.531887749836     0.410872305539
    H           -1.994998653388     2.005628268881     0.023445465731
    C           -3.020151778058     2.051123697410     1.863382884947
    O           -2.332849003678     2.382643679741     2.937857165284
    H           -2.912376007900     2.862683121754     3.522427162648
    CL           2.667276899896    -1.900932169333    -2.301435107824
    CL          -1.579931361629    -2.158884720943     0.955001967131
    CL           2.947924819654     1.240011619047    -1.651327103490
}
set globals {
  reference rhf
  g_convergence gau_tight
  basis 6-31G(d)
}
optimize('scf')
