memory 110 Gb

molecule conf9 {
    C            0.652680553299    -0.856200972318    -0.844613186490
    O            1.595224487166     0.813956460119     0.486575466651
    C            0.487755122581     0.183019384366     0.074830347390
    C           -0.790079745849     0.496341475488     0.498496723383
    H           -0.961030951872     1.287512364436     1.199086262658
    O            3.004150891080     3.408831243629     2.344449677264
    C           -1.889874102372    -0.207970655697     0.023001971692
    C           -1.720475262995    -1.233360261221    -0.883520868667
    C           -0.437282664455    -1.549137833189    -1.312261158708
    H           -0.296959868937    -2.344545669998    -2.017059833467
    C            1.506067671142     1.846669132494     1.417440092516
    H            1.057115548739     1.504337252196     2.344498342883
    H            0.923474856991     2.677418436203     1.039780233319
    C            2.878148918443     2.382468243194     1.761578484961
    O            3.879504754748     1.608324865596     1.402542138015
    H            4.691041492386     2.023969368480     1.679608578541
    CL          -3.050379934684    -2.147638142645    -1.512575607499
    CL           2.235096841688    -1.280942647669    -1.404246663527
    CL          -3.454752702129     0.248634588427     0.605790942308
}
set globals {
  reference rhf
  g_convergence gau_tight
  basis 6-31G(d)
}
frequency('hf', dertype=1)
