memory 110 Gb

molecule conf2 {
    C            0.396650384427    -0.795507199289    -1.231870800271
    O           -1.438463790903    -1.643428447857     0.039524318233
    C           -0.356403261108    -0.833271162769    -0.065869920354
    C            0.048086836055    -0.082625645534     1.022676947815
    H           -0.537540433747    -0.119581508509     1.918714403778
    O           -3.075217743102    -0.188230971266     1.732930694947
    C            1.183774135614     0.704957708685     0.953609439542
    C            1.926779326584     0.745711995791    -0.216980459991
    C            1.528408800900    -0.008666737268    -1.306511402800
    H            2.105748076937     0.014786799795    -2.209226666129
    C           -2.664904311559    -1.172968714947    -0.431828043952
    H           -3.243460068553    -2.032149502007    -0.741018147019
    H           -2.552176865113    -0.523212257935    -1.291368102733
    C           -3.444323341238    -0.433684892593     0.635159113887
    O           -4.635475188827    -0.084241049281     0.164981922755
    H           -5.111522049714     0.378747309583     0.848232736218
    CL           3.355405475317     1.713626843670    -0.366836830771
    CL          -0.062785275168    -1.748262957397    -2.608162214193
    CL           1.635628040869     1.620521185508     2.351485543593
}
set globals {
  reference rhf
  g_convergence gau_tight
  basis 6-31G(d)
}
frequency('hf', dertype=1)
