memory 110 Gb

molecule conf5 {
C    -0.331218164292    -1.210386894393     0.216412654113
O    -1.058032331004     0.758118949585     1.364761265999
C    -0.220549262391     0.144563946140     0.497247564158
C     0.798424511380     0.871879867693    -0.088919131027
H     0.894349457547     1.913916103852     0.147070251063
O    -4.158698558865     2.338466789881     1.691982597078
C     1.697138083591     0.269658441558    -0.951599608140
C     1.577998471531    -1.083163799078    -1.232404527958
C     0.563495023951    -1.817308813420    -0.642052690096
H     0.475040387364    -2.864495022984    -0.852963938482
C    -2.229715552690     1.300004716103     0.816778653038
H    -2.872412817341     0.530584860219     0.411900576683
H    -1.995536573844     2.003368012041     0.023440083223
C    -3.019933982580     2.050721778456     1.863795426208
O    -2.329115170673     2.389750224168     2.933717602588
H    -2.907824350756     2.870294404866     3.518679678057
CL     2.668274255312    -1.898818359331    -2.301891882541
CL    -1.580914347912    -2.160877140089     0.951632992075
CL     2.948346075536     1.241369557153    -1.647882457144
}
set globals {
  reference rhf
  g_convergence gau_tight
  basis 6-31G(d)
}
frequency('hf', dertype=1)
