memory 110 Gb

molecule molecule_1 {
    C            1.243384873651    -0.553327042251    -0.656822911851
    O            1.246781758555     1.784310747571    -0.148627178379
    C            0.577645351133     0.619210161727    -0.322205407311
    C           -0.801771232164     0.605460556206    -0.231643198010
    H           -1.311145021654     1.515926452256     0.010187939104
    O            1.373930742304     2.936778574616     3.210659736837
    C           -1.515549413650    -0.558856391206    -0.455032487882
    C           -0.844238712188    -1.729162790057    -0.774650703247
    C            0.536163016532    -1.718098713638    -0.876601108753
    H            1.056651670815    -2.618891866566    -1.134461325835
    C            1.858960536947     2.017172498748     1.088859728105
    H            2.726039462849     2.635300003023     0.902858621287
    H            2.197054903682     1.102349504016     1.555888785795
    C            1.001154442913     2.753348082595     2.099261950920
    O           -0.158755063523     3.187841927737     1.637011993567
    H           -0.602582810620     3.649642431175     2.343035899296
    CL          -1.678152192567    -3.219187924273    -1.062136931510
    CL           2.970172275707    -0.569093931528    -0.825544467258
    CL          -3.240772045718    -0.503112527800    -0.323460442306
}
set globals {
  reference rhf
  g_convergence gau_tight
  basis 6-31G(d)
}
frequency('hf', dertype=1)
