memory 20 Gb

molecule conf7 {
0 1
    C           -0.264894886677    -1.264076512584     0.170729619094
    O           -1.181918283125     0.610787393566     1.340050375244
    C           -0.269704270651     0.086704759073     0.487931070280
    C            0.706643416544     0.908659915583    -0.043369926383
    H            0.708256305955     1.948422802953     0.221104023252
    O           -2.712117487494     3.023706298253     2.144748885381
    C            1.678333092736     0.402101927351    -0.887885898850
    C            1.676194445041    -0.948422899036    -1.204815150364
    C            0.704006257824    -1.775731852594    -0.669589612098
    H            0.705800064396    -2.820413085204    -0.909444177101
    C           -2.367366003255     1.109199568166     0.760319623403
    H           -3.001114251367     0.298856168413     0.430416497686
    H           -2.138641917308     1.767703450642    -0.067207582778
    C           -3.044636471298     1.927730870761     1.843620608108
    O           -4.047113565835     1.279663771290     2.416226096506
    H           -4.415165488459     1.831803746964     3.100240611395
    CL           2.863114821289    -1.647076520717    -2.254311768410
    CL          -1.461888685681    -2.327525238574     0.834983515381
    CL           2.871137840182     1.486514039870    -1.516613236941
}
set globals {
  reference rhf
  opt_type ts
  g_convergence gau_tight
  basis 6-31G(d)
}
optimize('scf')
