memory 110 Gb

molecule conf6 {
C    -0.275801439181    -1.218187444686     0.225218180745
O    -1.091253612687     0.726958033621     1.354639595894
C    -0.226829935345     0.143603623541     0.490634278571
C     0.754220083251     0.912438554219    -0.106647296036
H     0.799733037470     1.960895083855     0.115799701218
O    -3.599045281549     1.230609404928     2.795017824142
C     1.678580564739     0.344130966820    -0.965274746697
C     1.622603159449    -1.015772901875    -1.230589616585
C     0.645089309323    -1.790499234232    -0.629637388530
H     0.605942949360    -2.842928337832    -0.829086114090
C    -2.287901850412     1.219603171765     0.794572034357
H    -2.878259645135     0.413304865566     0.380991373793
H    -2.075017365582     1.954498952338     0.030283618770
C    -3.061762231350     1.846046253567     1.939762326970
O    -3.071233113258     3.170895731567     1.871037541582
H    -3.559655117550     3.508770047282     2.616421002930
CL     2.747696447464    -1.790880657248    -2.294326315746
CL    -1.477783404150    -2.216747065697     0.972435635967
CL     2.880338662671     1.366439855086    -1.676476924682
}
set globals {
  reference rhf
  g_convergence gau_tight
  basis 6-31G(d)
}
frequency('hf', dertype=1)
