memory 110 Gb

molecule conf2 {
0 1
C          4.89200        2.42600        0.27000
O          3.08700        1.55700        1.57900
C          4.16800        2.36400        1.45500
C          4.60400        3.09300        2.54600
H          4.05200        3.02900        3.46200
O          1.37400        2.93700        3.21100
C          5.73500        3.88500        2.46400
C          6.44500        3.95400        1.27400
C          6.01800        3.21800        0.18200
H          6.57100        3.26000       -0.73500
C          1.85900        2.01700        1.08900
H          1.29800        1.14900        0.77300
H          1.97800        2.66500        0.23100
C          1.00100        2.75300        2.09900
O         -0.15900        3.18800        1.63700
H         -0.60300        3.65000        2.34300
Cl         7.86500        4.92900        1.10500
Cl         4.40500        1.49200       -1.10900
Cl         6.22200        4.77100        3.86900
}
set globals {
  reference rhf
  g_convergence gau_tight
  basis 6-31G(d)
}
optimize('scf')
print_variables()
