memory 55 Gb

molecule molecule_1 {
0 1
C         -0.73000       -0.03100       -0.00300
H         -1.10500       -0.58000       -0.86400
H         -1.12700        0.97300       -0.04000
H         -1.09500       -0.51200        0.90200
O          0.66500        0.07500       -0.01400
H          1.04700       -0.79000        0.01700
}

set globals {
  reference rhf
  g_convergence gau_tight
  basis cc-pvtz
  freeze_core true
}
optimize('mp2')
