memory 110 Gb

molecule molecule_2 {
0 1
C         -0.72000        0.01200        0.00600
H         -1.07500        1.03800       -0.01800
H         -1.10700       -0.46000        0.90200
H         -1.12100       -0.50600       -0.85800
O          0.68200       -0.06400       -0.00400
H          1.05600        0.80200       -0.03000
}

set globals {
  reference rhf
  opt_type ts
  g_convergence gau_tight
  basis cc-pvtz
  freeze_core true
}
optimize('mp2')
