memory 100 Gb

molecule conf_02 {
0 1
  C    -2.465404178400    -0.627029309400     0.396409749600
  H    -2.151490057000    -1.666300306800     0.469504405300
  H    -3.205005816300    -0.587207008900    -0.400411051500
  C    -3.117132354800    -0.202405728900     1.711853112800
  H    -3.473255431200     0.822263972400     1.659140369600
  H    -2.412697699500    -0.265046169300     2.536381543400
  H    -3.965035725400    -0.836000447700     1.952181158000
  C    -0.613431182700    -0.179158338700    -1.292303086100
  H    -1.328226395400    -0.115059101400    -2.103175044000
  H    -0.286278613500    -1.216504225300    -1.232501403300
  O     0.454524492900     0.655221743700    -1.657590278800
  H     1.143303329200     0.584311214100    -1.011434045200
  C    -1.266234611400     0.243814688700     0.017977714200
  H    -1.570796154800     1.283380457400    -0.069353099400
  H    -0.523839602000     0.203718560100     0.815319955500
}
set globals {
  reference rhf
  g_convergence gau_tight
  basis 6-31G(d)
}
optimize('scf')

