memory 100 Gb

molecule conf_04 {
0 1
  C    -1.287894020402    -0.792096892666    -0.327386237953
  H    -0.941465971945    -1.818359836293    -0.221604785451
  H    -1.993217732195    -0.797263904397    -1.153836105084
  C    -2.026627601458    -0.370587486909     0.945115506996
  H    -2.370740379971     0.657477282609     0.873558215854
  H    -1.398482923573    -0.447723624228     1.826874814415
  H    -2.896078705269    -0.998931349934     1.111448868620
  C     1.051256444425     0.073043860026     0.271093262988
  H     1.389085802756    -0.953846015857     0.407575026224
  H     0.745937034541     0.449206816522     1.244634936011
  O     2.083521085818     0.867046050901    -0.256405729372
  H     2.813554177503     0.880860674559     0.345897692146
  C    -0.109065324929     0.108763159338    -0.710107109016
  H     0.274523056596    -0.190847203559    -1.680876722155
  H    -0.443173091610     1.137915820703    -0.812260871363
}
set globals {
  reference rhf
  basis 6-31G(d)
}
frequency('scf', dertype=1)

