memory 100 Gb

molecule conf_01 {
0 1
  C    -2.458801342100    -0.641093572700     0.404168152800
  H    -2.127276620200    -1.673179089400     0.503616029000
  H    -3.207132608100    -0.630748766000    -0.380433900300
  C    -3.083618186200    -0.180822056700     1.720695821000
  H    -3.453620451900     0.837698801100     1.643318803500
  H    -2.361167314500    -0.208213349800     2.532101715300
  H    -3.919245358500    -0.814612499200     2.001256554500
  C    -0.639557094500    -0.205895333700    -1.330582072500
  H    -0.309461068400    -1.241518356700    -1.257859436900
  H     0.238479226100     0.404787920600    -1.533269341500
  O    -1.585175951200    -0.060944981600    -2.359997623000
  H    -1.214385830700    -0.360274222500    -3.177761382400
  C    -1.274864583000     0.228847366400    -0.020964563100
  H    -1.595740935600     1.262364154500    -0.123175703900
  H    -0.508431881200     0.210603985700     0.751886947600
}
set globals {
  reference rhf
  g_convergence gau_tight
  basis 6-31G(d)
}
optimize('scf')

