memory 100 Gb

molecule conf_02 {
0 1
  C    -1.112812516963    -0.620226798266     0.583651597878
  H    -0.798887225492    -1.659476809617     0.656810237316
  H    -1.852416375753    -0.580385096333    -0.213149306258
  C    -1.764553667056    -0.195585985165     1.899078211381
  H    -2.120744173907     0.829047519097     1.846307240009
  H    -1.060111402845    -0.258171311576     2.723592018685
  H    -2.612408780580    -0.829232686866     2.139410222568
  C     0.739061429462    -0.172379503346    -1.105013468363
  H     0.024253680881    -0.108235324034    -1.915847716530
  H     1.066205625558    -1.209694595461    -1.045180310239
  O     1.807095088879     0.662006749014    -1.470395543799
  H     2.496067096484     0.590941766335    -0.824475920427
  C     0.086342198013     0.250634892610     0.205265053676
  H    -0.218244234791     1.290172387335     0.117915032456
  H     0.828741979466     0.210476174540     1.002574547624
}
set globals {
  reference rhf
  basis 6-31G(d)
}
frequency('scf', dertype=1)

