memory 100 Gb

molecule conf_04 {
0 1
  C    -2.441271851400    -0.630393004300     0.418962525800
  H    -2.094817161800    -1.656687803700     0.524478472200
  H    -3.146682556900    -0.635422508600    -0.407427234900
  C    -3.179853499400    -0.209186360800     1.691661269400
  H    -3.523821908000     0.818964707200     1.620495447000
  H    -2.551654388600    -0.286702145200     2.573359224000
  H    -4.049400511600    -0.837439001100     1.857881405300
  C    -0.102291660300     0.235331524400     1.017682434800
  H     0.235509257700    -0.791516256000     1.154803751600
  H    -0.407774629600     0.611991639200     1.991013303500
  O     0.930011223400     1.028990019000     0.489959120100
  H     1.659876118600     1.043135638000     1.092472933900
  C    -1.262476453600     0.270538007400     0.036275967200
  H    -0.878646288100    -0.029238569600    -0.934364435100
  H    -1.596705690400     1.299634114100    -0.066254184600
}
set globals {
  reference rhf
  g_convergence gau_tight
  basis 6-31G(d)
}
optimize('scf')

