memory 100 Gb

molecule conf_03 {
0 1
  C    -2.457211958400    -0.629798040500     0.388974479400
  H    -2.143010436200    -1.668192390000     0.473380849800
  H    -3.210795087000    -0.601472193300    -0.395512589700
  C    -3.086793806500    -0.185086576100     1.708630459800
  H    -3.443283131600     0.838977434000     1.646375462900
  H    -2.368021726200    -0.235217307100     2.521354901200
  H    -3.930780589900    -0.814429249900     1.973173647100
  C    -0.633482863800    -0.202532172500    -1.327663825200
  H    -1.371043357900    -0.159443409700    -2.128014414700
  H    -0.294509413100    -1.234900984800    -1.252001208700
  O     0.445507193300     0.652961785900    -1.603369799600
  H     0.853772233600     0.397813912100    -2.418325224700
  C    -1.263005254500     0.234946692100    -0.016961888700
  H    -1.569138967100     1.273120724600    -0.113436077500
  H    -0.500202834900     0.205251775200     0.756395228700
}
set globals {
  reference rhf
  g_convergence gau_tight
  basis 6-31G(d)
}
optimize('scf')

