memory 100 Gb

molecule conf_01 {
0 1
 C          -4.2956319773   1.3929946983  -0.3845364795
 H          -4.0289973531   1.5436056625  -1.4278843286
 H          -3.6233789955   1.9955051766   0.2216836509
 C          -4.1691655340  -0.0741402363  -0.0148714403
 H          -4.4638359266  -0.1930978504   1.0245669142
 H          -4.8766038986  -0.6423242438  -0.6112889688
 C          -2.7533526719  -0.6140163570  -0.2231595344
 H          -2.4632796483  -0.4811338625  -1.2632109580
 H          -2.0496997763  -0.0318200332   0.3684921157
 C          -2.6269938368  -2.0904029762   0.1504445320
 H          -1.6151615105  -2.4495731017  -0.0084644197
 H          -2.8762637062  -2.2524215231   1.1950987678
 H          -3.2948977852  -2.7029364728  -0.4477141935
 O          -5.6317330730   1.7946351834  -0.1617631612
 H          -5.7316536864   2.7119194778  -0.3760417082
 C          -8.4791339855  -0.5017195469  -0.6226118714
 H          -9.1344609402   0.2782127750  -0.2390761820
 H          -8.0141254555  -1.0030471866   0.2239327798
 H          -9.0876086608  -1.2239321560  -1.1514553637
 O          -7.5365874962  -0.0018531624  -1.5216704969
 H          -6.9754340820   0.6205457351  -1.0724696543
}
set globals {
  reference rhf
  g_convergence gau_tight
  basis 6-31G(d)
}
optimize('scf')
