memory 100 Gb

molecule conf_01 {
0 1
  C    -0.434924836942    -0.078958077650    -0.130434828770
  H    -0.001310947147    -0.231601093363    -1.119038504346
  H    -1.279113873114     0.599837972156    -0.253647215479
  C    -0.919313365271    -1.405640460436     0.429398085190
  H    -1.329347309076    -1.229974524736     1.420625720882
  H    -0.059042113465    -2.057095614610     0.560219950236
  C    -1.962906610216    -2.086571901225    -0.456780132762
  H    -1.547022906890    -2.250223749406    -1.449051374379
  H    -2.815970665889    -1.424007224422    -0.589449513541
  C    -2.445268515410    -3.420211380921     0.113013301274
  H    -3.184459950023    -3.881538279235    -0.534796857894
  H    -2.898821578897    -3.286443529630     1.090934738351
  H    -1.620851462865    -4.118558912392     0.225262037336
  O     0.510183969758     0.457301832786     0.750043184907
  H     0.824236423551     1.288106753352     0.410550450113
  C     3.050974371662     2.815546621751    -0.448554701270
  H     3.480110008589     3.662787176179    -0.974254317128
  H     3.555915434338     2.693068727314     0.504391415907
  H     3.206291763876     1.924774568417    -1.039204473185
  O     1.661930295042     2.964300195611    -0.285175256948
  H     1.480996667642     3.728514863962     0.243999056130
}
set globals {
  reference rhf
  basis 6-31G(d)
}
frequency('scf', dertype=1)
