memory 100 Gb

molecule conf_01 {
0 1
  C    -4.771619784200     1.385877568500    -0.110706598100
  H    -5.089701090900     1.275603557100    -1.148241652900
  H    -3.958900810400     2.109701541100    -0.100163633500
  C    -4.300038863300     0.042769258200     0.424665832500
  H    -3.960411094100     0.179066037000     1.448439173900
  H    -5.165411280700    -0.612190514100     0.471079151600
  C    -3.201256880100    -0.624508959300    -0.408928771300
  H    -3.039933972100    -1.627243826600    -0.021865570400
  H    -3.548184576300    -0.749979921400    -1.432966801600
  C    -1.863486336800     0.119276440300    -0.414094450300
  H    -1.109677958000    -0.446015918200    -0.953764586400
  H    -1.939957649600     1.092506502400    -0.888079416500
  H    -1.499452368300     0.272855669300     0.598153175200
  O    -5.830753801700     1.826257797300     0.690618189000
  H    -6.122534009500     2.679416270700     0.388827571600
  C    -8.254931600800     4.256380446400    -0.615363151500
  H    -8.633853519700     5.149846668300    -1.101695348400
  H    -8.878984021500     4.023973963500     0.241763939300
  H    -8.304753373400     3.433196406900    -1.312786415500
  O    -6.905006345300     4.405520472600    -0.250002941600
  H    -6.818150663100     5.110690539600     0.376112304900
}
set globals {
  reference rhf
  g_convergence gau_tight
  basis 6-31G(d)
}
set optking {
dynamic_level = 1
}
optimize('scf')
