memory 100 Gb

molecule conf_01 {
0 1
  C     0.862623618218     1.372316120295     0.026950179390
  H     1.129179384606     1.522932093792    -1.016386282541
  H     1.534686884329     1.974987481274     0.633169374442
  C     0.989408371139    -0.094761929754     0.396662903632
  H     0.694927344785    -0.213738507907     1.436133911924
  H     0.282089280894    -0.663116363564    -0.199693390147
  C     2.405338907816    -0.634234634398     0.188221301583
  H     2.695229467769    -0.501382535472    -0.851871513002
  H     3.108899709211    -0.051857337312     0.779781032869
  C     2.532125329063    -2.110561538725     0.561898669478
  H     3.544040141501    -2.469440975897     0.402901596873
  H     2.283016993915    -2.272567008013     1.606583881479
  H     1.864339228078    -2.723294046593    -0.036171500950
  O    -0.473655397429     1.773672957857     0.249720022362
  H    -0.573845579319     2.690917572874     0.035437977071
  C    -3.322022864152    -0.521394290245    -0.211354800701
  H    -3.977043783700     0.259124398613     0.171447926855
  H    -2.857878207091    -1.022682774232     0.635657842121
  H    -3.930640993905    -1.243400740178    -0.740290551732
  O    -2.378542398924    -0.022512035759    -1.110088984187
  H    -1.817162341607     0.599675537489    -0.660893518668
}
set globals {
  reference rhf
  basis 6-31G(d)
}
frequency('scf', dertype=1)
