memory 100 Gb

molecule conf_01 {
0 1
 C          4.7127318838   1.2989224917  -0.2119501403
 H          5.1464689503   1.1463074316  -1.2005381822
 H          3.8685376608   1.9777334089  -0.3353190061
 C          4.2282508521  -0.0277882547   0.3477811885
 H          3.8181327993   0.1478530164   1.3389986391
 H          5.0885308346  -0.6792299036   0.4787671102
 C          3.1847644175  -0.7088012672  -0.5384873939
 H          3.6007584044  -0.8724085304  -1.5307345408
 H          2.3317098529  -0.0462312683  -0.6713019527
 C          2.7023657515  -2.0424531847   0.0312590216
 H          1.9632564337  -2.5038284041  -0.6166221571
 H          2.2487017181  -1.9087051176   1.0091428173
 H          3.5267879819  -2.7407899593   0.1436345108
 O          5.6576621453   1.8351471070   0.6686251761
 H          5.9717274807   2.6659350563   0.3290785566
 C          8.1984574795   4.1932323012  -0.5303612108
 H          8.6276585282   5.0404759004  -1.0560460417
 H          8.7035161193   4.0706005883   0.4225293653
 H          8.3536104852   3.3024848642  -1.1211146882
 O          6.8095267979   4.3421601386  -0.3668040537
 H          6.6288434230   5.1063835852   0.1624629821
}
set globals {
  reference rhf
  g_convergence gau_tight
  basis 6-31G(d)
}
optimize('scf')
