memory 100 Gb

molecule conf_01 {
0 1
  C     0.340728127337    -0.334748963608    -0.027658188083
  H     0.038130560824    -0.420306976059    -1.072100546837
  H     1.125493237095     0.417950492977     0.017789111372
  C     0.856649693196    -1.677374329773     0.466405915250
  H     1.179851246784    -1.564659766290     1.498310854852
  H     0.016092866055    -2.365307444621     0.479472454968
  C     1.988695089985    -2.273483635716    -0.376547494005
  H     2.183005626125    -3.282762459918    -0.023138835283
  H     1.658078230499    -2.374966995123    -1.408593662738
  C     3.297784862121    -1.481199816286    -0.338821860907
  H     4.077989592940    -1.998583526007    -0.888917288367
  H     3.190317604679    -0.495040715452    -0.778830420100
  H     3.644669301237    -1.350845317650     0.682650554742
  O    -0.742787300042     0.037523627406     0.775745827635
  H    -1.063190131125     0.889436894473     0.500658770949
  C    -3.243749703666     2.422940826618    -0.467188894733
  H    -3.651262650008     3.319729146715    -0.923300986054
  H    -3.866965587738     2.134540649871     0.373343228555
  H    -3.255598276943     1.625982993964    -1.196028968521
  O    -1.903977963404     2.608131446872    -0.081219027568
  H    -1.849937873220     3.291205725726     0.572465873991
}
set globals {
  reference rhf
  basis 6-31G(d)
}
frequency('scf', dertype=1)
