memory 110 Gb

molecule molecule_1_psi {
0 1
    C           -0.717169886130    -0.028221694508     0.004452327835
    H           -1.091321641961    -0.576498367921    -0.856875672564
    H           -1.113708927287     0.976801983697    -0.032397148070
    H           -1.083040707832    -0.508489916123     0.908869000386
    O            0.678415804156     0.077615785161    -0.006171283781
    H            1.060339122161    -0.787601652874     0.025333467469
}

set globals {
  reference rhf
  basis 6-31G(d)
}
frequency('scf', dertype=1)
